words_hard_train/2682.qaiger
aag 156 16 0 1 140
2
4
8
16
36
44
62
70
88
96
114
122
140
148
164
282
312
6 3 5
10 4 8
12 5 9
14 11 13
18 14 16
20 15 17
22 19 21
24 7 23
26 2 4
28 27 19
30 28 21
32 25 31
34 29 21
38 13 36
40 12 37
42 39 41
46 43 45
48 42 44
50 47 49
52 35 51
54 34 50
56 53 55
58 32 57
60 55 49
64 41 62
66 40 63
68 65 67
72 69 71
74 68 70
76 73 75
78 60 77
80 61 76
82 79 81
84 58 83
86 81 75
90 67 88
92 66 89
94 91 93
98 95 97
100 94 96
102 99 101
104 86 103
106 87 102
108 105 107
110 84 109
112 107 101
116 93 114
118 92 115
120 117 119
124 121 123
126 120 122
128 125 127
130 112 129
132 113 128
134 131 133
136 110 135
138 133 127
142 119 140
144 118 141
146 143 145
150 147 149
152 146 148
154 151 153
156 138 155
158 139 154
160 157 159
162 136 161
166 144 165
168 163 166
170 59 82
172 171 85
174 41 165
176 175 63
178 174 62
180 177 179
182 13 165
184 183 37
186 182 36
188 185 187
190 188 56
192 191 59
194 9 165
196 15 164
198 195 197
200 198 31
202 201 33
204 189 57
206 202 205
208 206 13
210 192 209
212 181 210
214 173 213
216 180 211
218 215 217
220 67 165
222 221 89
224 220 88
226 223 225
228 85 108
230 229 111
232 227 230
234 219 233
236 226 231
238 235 237
240 93 165
242 241 115
244 240 114
246 243 245
248 111 134
250 249 137
252 247 250
254 239 253
256 246 251
258 255 257
260 145 164
262 261 147
264 141 164
266 263 265
268 137 160
270 269 163
272 267 270
274 259 273
276 266 271
278 275 277
280 261 167
284 281 282
286 280 283
288 285 287
290 159 153
292 289 291
294 288 290
296 293 295
298 278 296
300 168 299
302 162 167
304 298 302
306 301 305
308 279 297
310 308 303
312 306 311
i0 1 x1[0]
i1 2 y2[0]
i2 2 y2[1]
i3 1 x1[1]
i4 2 y2[2]
i5 1 x1[2]
i6 2 y2[3]
i7 1 x1[3]
i8 2 y2[4]
i9 1 x1[4]
i10 2 y2[5]
i11 1 x1[5]
i12 2 y2[6]
i13 1 x1[6]
i14 2 y2[7]
i15 1 x1[7]
o0 bv[0]
c
simplified
  >=
    subtract
      abs
        2 y2
      1
    subtract
      1 x1
      2 y2
