words_hard_train/2682.qaiger.qdimacs
p cnf 156 421
a 1 35 8 74 141 48 22 61 0
e 2 3 4 5 6 7 9 10 11 12 13 14 15 16 17 18 19 20 21 23 24 25 26 27 28 29 30 31 32 33 34 36 37 38 39 40 41 42 43 44 45 46 47 49 50 51 52 53 54 55 56 57 58 59 60 62 63 64 65 66 67 68 69 70 71 72 73 75 76 77 78 79 80 81 82 83 84 85 86 87 88 89 90 91 92 93 94 95 96 97 98 99 100 101 102 103 104 105 106 107 108 109 110 111 112 113 114 115 116 117 118 119 120 121 122 123 124 125 126 127 128 129 130 131 132 133 134 135 136 137 138 139 140 142 143 144 145 146 147 148 149 150 151 152 153 154 155 156 0
1 2 3 0
-1 -3 0
-2 -3 0
-2 -4 5 0
2 -5 0
4 -5 0
2 4 6 0
-2 -6 0
-4 -6 0
5 6 7 0
-5 -7 0
-6 -7 0
-7 -8 9 0
7 -9 0
8 -9 0
7 8 10 0
-7 -10 0
-8 -10 0
9 10 11 0
-9 -11 0
-10 -11 0
3 11 12 0
-3 -12 0
-11 -12 0
-1 -2 13 0
1 -13 0
2 -13 0
13 9 14 0
-13 -14 0
-9 -14 0
-14 10 15 0
14 -15 0
-10 -15 0
12 15 16 0
-12 -16 0
-15 -16 0
14 10 17 0
-14 -17 0
-10 -17 0
6 -18 19 0
-6 -19 0
18 -19 0
-6 18 20 0
6 -20 0
-18 -20 0
19 20 21 0
-19 -21 0
-20 -21 0
21 22 23 0
-21 -23 0
-22 -23 0
-21 -22 24 0
21 -24 0
22 -24 0
23 24 25 0
-23 -25 0
-24 -25 0
17 25 26 0
-17 -26 0
-25 -26 0
-17 -25 27 0
17 -27 0
25 -27 0
26 27 28 0
-26 -28 0
-27 -28 0
-16 28 29 0
16 -29 0
-28 -29 0
27 24 30 0
-27 -30 0
-24 -30 0
20 -31 32 0
-20 -32 0
31 -32 0
-20 31 33 0
20 -33 0
-31 -33 0
32 33 34 0
-32 -34 0
-33 -34 0
34 35 36 0
-34 -36 0
-35 -36 0
-34 -35 37 0
34 -37 0
35 -37 0
36 37 38 0
-36 -38 0
-37 -38 0
-30 38 39 0
30 -39 0
-38 -39 0
30 -38 40 0
-30 -40 0
38 -40 0
39 40 41 0
-39 -41 0
-40 -41 0
-29 41 42 0
29 -42 0
-41 -42 0
40 37 43 0
-40 -43 0
-37 -43 0
33 -44 45 0
-33 -45 0
44 -45 0
-33 44 46 0
33 -46 0
-44 -46 0
45 46 47 0
-45 -47 0
-46 -47 0
47 48 49 0
-47 -49 0
-48 -49 0
-47 -48 50 0
47 -50 0
48 -50 0
49 50 51 0
-49 -51 0
-50 -51 0
-43 51 52 0
43 -52 0
-51 -52 0
43 -51 53 0
-43 -53 0
51 -53 0
52 53 54 0
-52 -54 0
-53 -54 0
-42 54 55 0
42 -55 0
-54 -55 0
53 50 56 0
-53 -56 0
-50 -56 0
46 -57 58 0
-46 -58 0
57 -58 0
-46 57 59 0
46 -59 0
-57 -59 0
58 59 60 0
-58 -60 0
-59 -60 0
60 61 62 0
-60 -62 0
-61 -62 0
-60 -61 63 0
60 -63 0
61 -63 0
62 63 64 0
-62 -64 0
-63 -64 0
-56 64 65 0
56 -65 0
-64 -65 0
56 -64 66 0
-56 -66 0
64 -66 0
65 66 67 0
-65 -67 0
-66 -67 0
-55 67 68 0
55 -68 0
-67 -68 0
66 63 69 0
-66 -69 0
-63 -69 0
59 -70 71 0
-59 -71 0
70 -71 0
-59 70 72 0
59 -72 0
-70 -72 0
71 72 73 0
-71 -73 0
-72 -73 0
73 74 75 0
-73 -75 0
-74 -75 0
-73 -74 76 0
73 -76 0
74 -76 0
75 76 77 0
-75 -77 0
-76 -77 0
-69 77 78 0
69 -78 0
-77 -78 0
69 -77 79 0
-69 -79 0
77 -79 0
78 79 80 0
-78 -80 0
-79 -80 0
-68 80 81 0
68 -81 0
-80 -81 0
-72 82 83 0
72 -83 0
-82 -83 0
81 -83 84 0
-81 -84 0
83 -84 0
29 -41 85 0
-29 -85 0
41 -85 0
85 42 86 0
-85 -86 0
-42 -86 0
20 82 87 0
-20 -87 0
-82 -87 0
87 31 88 0
-87 -88 0
-31 -88 0
-87 -31 89 0
87 -89 0
31 -89 0
88 89 90 0
-88 -90 0
-89 -90 0
6 82 91 0
-6 -91 0
-82 -91 0
91 18 92 0
-91 -92 0
-18 -92 0
-91 -18 93 0
91 -93 0
18 -93 0
92 93 94 0
-92 -94 0
-93 -94 0
-94 -28 95 0
94 -95 0
28 -95 0
95 29 96 0
-95 -96 0
-29 -96 0
4 82 97 0
-4 -97 0
-82 -97 0
7 -82 98 0
-7 -98 0
82 -98 0
97 98 99 0
-97 -99 0
-98 -99 0
-99 15 100 0
99 -100 0
-15 -100 0
100 16 101 0
-100 -101 0
-16 -101 0
94 28 102 0
-94 -102 0
-28 -102 0
-101 102 103 0
101 -103 0
-102 -103 0
-103 6 104 0
103 -104 0
-6 -104 0
-96 104 105 0
96 -105 0
-104 -105 0
90 -105 106 0
-90 -106 0
105 -106 0
86 106 107 0
-86 -107 0
-106 -107 0
-90 105 108 0
90 -108 0
-105 -108 0
107 108 109 0
-107 -109 0
-108 -109 0
33 82 110 0
-33 -110 0
-82 -110 0
110 44 111 0
-110 -111 0
-44 -111 0
-110 -44 112 0
110 -112 0
44 -112 0
111 112 113 0
-111 -113 0
-112 -113 0
42 -54 114 0
-42 -114 0
54 -114 0
114 55 115 0
-114 -115 0
-55 -115 0
113 -115 116 0
-113 -116 0
115 -116 0
109 116 117 0
-109 -117 0
-116 -117 0
-113 115 118 0
113 -118 0
-115 -118 0
117 118 119 0
-117 -119 0
-118 -119 0
46 82 120 0
-46 -120 0
-82 -120 0
120 57 121 0
-120 -121 0
-57 -121 0
-120 -57 122 0
120 -122 0
57 -122 0
121 122 123 0
-121 -123 0
-122 -123 0
55 -67 124 0
-55 -124 0
67 -124 0
124 68 125 0
-124 -125 0
-68 -125 0
123 -125 126 0
-123 -126 0
125 -126 0
119 126 127 0
-119 -127 0
-126 -127 0
-123 125 128 0
123 -128 0
-125 -128 0
127 128 129 0
-127 -129 0
-128 -129 0
72 -82 130 0
-72 -130 0
82 -130 0
130 73 131 0
-130 -131 0
-73 -131 0
70 -82 132 0
-70 -132 0
82 -132 0
131 132 133 0
-131 -133 0
-132 -133 0
68 -80 134 0
-68 -134 0
80 -134 0
134 81 135 0
-134 -135 0
-81 -135 0
133 -135 136 0
-133 -136 0
135 -136 0
129 136 137 0
-129 -137 0
-136 -137 0
-133 135 138 0
133 -138 0
-135 -138 0
137 138 139 0
-137 -139 0
-138 -139 0
130 83 140 0
-130 -140 0
-83 -140 0
140 -141 142 0
-140 -142 0
141 -142 0
-140 141 143 0
140 -143 0
-141 -143 0
142 143 144 0
-142 -144 0
-143 -144 0
79 76 145 0
-79 -145 0
-76 -145 0
144 145 146 0
-144 -146 0
-145 -146 0
-144 -145 147 0
144 -147 0
145 -147 0
146 147 148 0
-146 -148 0
-147 -148 0
-139 -148 149 0
139 -149 0
148 -149 0
-84 149 150 0
84 -150 0
-149 -150 0
-81 83 151 0
81 -151 0
-83 -151 0
-149 -151 152 0
149 -152 0
151 -152 0
150 152 153 0
-150 -153 0
-152 -153 0
139 148 154 0
-139 -154 0
-148 -154 0
-154 151 155 0
154 -155 0
-151 -155 0
-153 155 156 0
153 -156 0
-155 -156 0
156 0
